c instance by G2
c solution = 0000010
c Known solution cost is 406 
p cnf 7 30
w 49 60 93 83 10 48 63
7 -1 5 0
-6 -2 5 0
1 7 -2 0
-7 3 2 0
-2 -1 5 0
-7 -3 -6 0
5 4 -1 0
5 1 -2 0
-5 4 7 0
-7 3 4 0
6 4 5 0
-7 5 1 0
-3 1 -6 0
4 -1 2 0
-1 4 5 0
1 2 6 0
-6 3 -2 0
-7 3 1 0
-3 7 -6 0
6 -4 5 0
-7 1 2 0
6 4 -1 0
6 -5 4 0
5 -1 3 0
2 -4 3 0
-6 -4 -7 0
3 -4 6 0
-7 -1 -4 0
4 1 6 0
-4 6 -3 0
